c 3 __LINUXTHREADS_OLD__
c 1 __UCLIBC_HAS_THREADS_NATIVE__
c 6 __UCLIBC_HAS_FLOATS__
c 2 __UCLIBC_HAS_XLOCALE__
c 7 __UCLIBC_HAS_LOCALE__
c 8 __LINUXTHREADS_NEW__
c 5 __UCLIBC_SUSV3_LEGACY__
c 4 __UCLIBC_HAS_THREADS__
p cnf 8 2
-6 1 3 -2 -4 7 -5 8 1
-6 -2 4 7 -5 1
